(set-logic ALL)
(declare-const BAV1 Bool)
(declare-const BAV2 Bool)
(declare-const GEN3 Int)
(declare-const GEN2 String)
(declare-const GEN1 Int)
(declare-fun t () (Tuple Int String))
(declare-fun i () String)
(assert (= t (mkTuple GEN1 GEN2)))
(assert (= i ((_ tupSel 1) t)))
(assert (= BAV1 (= t (mkTuple GEN1 GEN2))))
(assert (= BAV2 (= i ((_ tupSel 1) t))))
(check-sat)
(get-model)